nLocations = 8;
ls = 1;
fromPoints = 1;
points = [
[ 125 125 ]
[ 143 138 ]
[ 237 246 ]
[ 22 199 ]
[ 122 90 ]
[ 15 11 ]
[ 248 181 ]
[ 37 101 ]
];
dist = [
[ 0 0 0 0 0 0 0 0 ]
[ 0 0 0 0 0 0 0 0 ]
[ 0 0 0 0 0 0 0 0 ]
[ 0 0 0 0 0 0 0 0 ]
[ 0 0 0 0 0 0 0 0 ]
[ 0 0 0 0 0 0 0 0 ]
[ 0 0 0 0 0 0 0 0 ]
[ 0 0 0 0 0 0 0 0 ]
];
t = [ 0 58 54 36 42 31 46 24 ];
minWin = [ 0 111 115 215 100 263 119 269 ];
maxWin = [ 720 595 533 495 594 516 511 498 ];
